784 1512
1 2 5
1 29 2
2 3 5
2 30 5
3 4 3
3 31 1
4 5 1
4 32 1
5 6 1
5 33 5
6 7 4
6 34 4
7 8 3
7 35 1
8 9 3
8 36 3
9 10 2
9 37 1
10 11 1
10 38 1
11 12 2
11 39 3
12 13 4
12 40 3
13 14 4
13 41 2
14 15 4
14 42 2
15 16 3
15 43 5
16 17 3
16 44 2
17 18 4
17 45 2
18 19 3
18 46 4
19 20 1
19 47 4
20 21 4
20 48 2
21 22 5
21 49 3
22 23 5
22 50 5
23 24 4
23 51 3
24 25 3
24 52 3
25 26 4
25 53 1
26 27 4
26 54 3
27 28 2
27 55 3
28 56 4
29 30 4
29 57 1
30 31 2
30 58 2
31 32 2
31 59 4
32 33 5
32 60 5
33 34 5
33 61 3
34 35 1
34 62 5
35 36 1
35 63 5
36 37 5
36 64 3
37 38 2
37 65 1
38 39 1
38 66 1
39 40 2
39 67 5
40 41 1
40 68 4
41 42 4
41 69 5
42 43 4
42 70 1
43 44 3
43 71 2
44 45 4
44 72 1
45 46 1
45 73 3
46 47 1
46 74 2
47 48 2
47 75 3
48 49 4
48 76 1
49 50 3
49 77 5
50 51 5
50 78 1
51 52 5
51 79 3
52 53 5
52 80 3
53 54 5
53 81 5
54 55 2
54 82 2
55 56 3
55 83 1
56 84 2
57 58 5
57 85 2
58 59 5
58 86 5
59 60 1
59 87 4
60 61 1
60 88 1
61 62 2
61 89 2
62 63 4
62 90 1
63 64 1
63 91 3
64 65 2
64 92 3
65 66 4
65 93 2
66 67 3
66 94 4
67 68 1
67 95 1
68 69 2
68 96 2
69 70 4
69 97 3
70 71 5
70 98 2
71 72 5
71 99 3
72 73 4
72 100 2
73 74 1
73 101 4
74 75 5
74 102 2
75 76 1
75 103 2
76 77 4
76 104 2
77 78 4
77 105 5
78 79 5
78 106 4
79 80 2
79 107 3
80 81 4
80 108 5
81 82 5
81 109 1
82 83 5
82 110 5
83 84 5
83 111 4
84 112 2
85 86 2
85 113 3
86 87 1
86 114 3
87 88 4
87 115 5
88 89 5
88 116 3
89 90 5
89 117 2
90 91 1
90 118 2
91 92 3
91 119 3
92 93 5
92 120 1
93 94 1
93 121 4
94 95 3
94 122 5
95 96 2
95 123 4
96 97 5
96 124 5
97 98 5
97 125 1
98 99 4
98 126 4
99 100 1
99 127 2
100 101 5
100 128 4
101 102 5
101 129 2
102 103 2
102 130 1
103 104 2
103 131 3
104 105 3
104 132 2
105 106 5
105 133 4
106 107 4
106 134 2
107 108 4
107 135 3
108 109 4
108 136 5
109 110 2
109 137 3
110 111 5
110 138 2
111 112 4
111 139 1
112 140 5
113 114 1
113 141 4
114 115 3
114 142 5
115 116 5
115 143 4
116 117 4
116 144 1
117 118 5
117 145 4
118 119 5
118 146 2
119 120 3
119 147 5
120 121 3
120 148 4
121 122 5
121 149 5
122 123 3
122 150 1
123 124 2
123 151 4
124 125 3
124 152 5
125 126 1
125 153 4
126 127 3
126 154 2
127 128 5
127 155 1
128 129 2
128 156 3
129 130 2
129 157 2
130 131 4
130 158 4
131 132 3
131 159 2
132 133 3
132 160 4
133 134 2
133 161 4
134 135 3
134 162 2
135 136 4
135 163 2
136 137 1
136 164 1
137 138 2
137 165 1
138 139 2
138 166 2
139 140 2
139 167 4
140 168 1
141 142 5
141 169 4
142 143 4
142 170 1
143 144 2
143 171 3
144 145 5
144 172 3
145 146 4
145 173 4
146 147 1
146 174 1
147 148 5
147 175 2
148 149 2
148 176 3
149 150 1
149 177 1
150 151 2
150 178 4
151 152 1
151 179 4
152 153 5
152 180 5
153 154 1
153 181 2
154 155 5
154 182 1
155 156 1
155 183 4
156 157 3
156 184 4
157 158 2
157 185 4
158 159 5
158 186 2
159 160 5
159 187 5
160 161 2
160 188 4
161 162 1
161 189 4
162 163 2
162 190 4
163 164 1
163 191 3
164 165 2
164 192 3
165 166 4
165 193 4
166 167 5
166 194 2
167 168 3
167 195 3
168 196 5
169 170 1
169 197 3
170 171 1
170 198 4
171 172 4
171 199 4
172 173 3
172 200 4
173 174 4
173 201 4
174 175 2
174 202 4
175 176 4
175 203 5
176 177 4
176 204 2
177 178 2
177 205 2
178 179 2
178 206 2
179 180 5
179 207 1
180 181 5
180 208 4
181 182 4
181 209 1
182 183 4
182 210 1
183 184 1
183 211 2
184 185 4
184 212 4
185 186 4
185 213 3
186 187 5
186 214 1
187 188 2
187 215 5
188 189 5
188 216 5
189 190 3
189 217 1
190 191 4
190 218 5
191 192 2
191 219 5
192 193 4
192 220 5
193 194 3
193 221 2
194 195 2
194 222 3
195 196 2
195 223 5
196 224 5
197 198 4
197 225 3
198 199 1
198 226 3
199 200 1
199 227 5
200 201 5
200 228 5
201 202 5
201 229 2
202 203 5
202 230 5
203 204 4
203 231 3
204 205 3
204 232 3
205 206 4
205 233 2
206 207 3
206 234 3
207 208 2
207 235 5
208 209 1
208 236 4
209 210 4
209 237 4
210 211 5
210 238 5
211 212 1
211 239 2
212 213 5
212 240 4
213 214 5
213 241 4
214 215 1
214 242 5
215 216 2
215 243 5
216 217 2
216 244 4
217 218 3
217 245 1
218 219 3
218 246 4
219 220 1
219 247 5
220 221 1
220 248 4
221 222 1
221 249 4
222 223 2
222 250 2
223 224 3
223 251 2
224 252 2
225 226 3
225 253 3
226 227 3
226 254 5
227 228 5
227 255 4
228 229 2
228 256 4
229 230 2
229 257 2
230 231 1
230 258 1
231 232 4
231 259 2
232 233 3
232 260 3
233 234 2
233 261 3
234 235 2
234 262 3
235 236 3
235 263 2
236 237 5
236 264 4
237 238 1
237 265 1
238 239 5
238 266 2
239 240 1
239 267 4
240 241 3
240 268 4
241 242 2
241 269 4
242 243 2
242 270 1
243 244 2
243 271 2
244 245 5
244 272 2
245 246 4
245 273 4
246 247 2
246 274 5
247 248 3
247 275 2
248 249 4
248 276 5
249 250 3
249 277 2
250 251 1
250 278 1
251 252 3
251 279 4
252 280 5
253 254 4
253 281 1
254 255 1
254 282 5
255 256 4
255 283 3
256 257 1
256 284 2
257 258 2
257 285 2
258 259 3
258 286 4
259 260 2
259 287 4
260 261 1
260 288 3
261 262 2
261 289 4
262 263 5
262 290 2
263 264 2
263 291 3
264 265 3
264 292 4
265 266 4
265 293 5
266 267 5
266 294 5
267 268 5
267 295 5
268 269 3
268 296 2
269 270 3
269 297 4
270 271 2
270 298 1
271 272 2
271 299 2
272 273 2
272 300 5
273 274 1
273 301 1
274 275 5
274 302 1
275 276 4
275 303 3
276 277 1
276 304 3
277 278 1
277 305 4
278 279 5
278 306 4
279 280 1
279 307 1
280 308 3
281 282 2
281 309 5
282 283 5
282 310 1
283 284 3
283 311 2
284 285 3
284 312 3
285 286 5
285 313 3
286 287 4
286 314 5
287 288 4
287 315 2
288 289 4
288 316 4
289 290 1
289 317 4
290 291 1
290 318 4
291 292 2
291 319 5
292 293 5
292 320 5
293 294 2
293 321 4
294 295 1
294 322 2
295 296 5
295 323 5
296 297 1
296 324 3
297 298 5
297 325 1
298 299 5
298 326 3
299 300 5
299 327 3
300 301 3
300 328 2
301 302 5
301 329 1
302 303 2
302 330 3
303 304 5
303 331 5
304 305 2
304 332 2
305 306 2
305 333 2
306 307 5
306 334 3
307 308 1
307 335 1
308 336 3
309 310 2
309 337 1
310 311 1
310 338 2
311 312 5
311 339 2
312 313 3
312 340 2
313 314 4
313 341 3
314 315 1
314 342 4
315 316 3
315 343 5
316 317 1
316 344 4
317 318 2
317 345 4
318 319 3
318 346 3
319 320 3
319 347 3
320 321 3
320 348 3
321 322 4
321 349 4
322 323 2
322 350 2
323 324 1
323 351 3
324 325 5
324 352 4
325 326 4
325 353 5
326 327 5
326 354 3
327 328 5
327 355 2
328 329 1
328 356 2
329 330 4
329 357 1
330 331 1
330 358 5
331 332 5
331 359 2
332 333 3
332 360 2
333 334 5
333 361 3
334 335 3
334 362 4
335 336 4
335 363 3
336 364 5
337 338 4
337 365 3
338 339 1
338 366 3
339 340 4
339 367 1
340 341 3
340 368 3
341 342 3
341 369 4
342 343 4
342 370 1
343 344 4
343 371 3
344 345 3
344 372 3
345 346 5
345 373 3
346 347 4
346 374 3
347 348 1
347 375 4
348 349 1
348 376 2
349 350 4
349 377 3
350 351 3
350 378 4
351 352 1
351 379 2
352 353 4
352 380 3
353 354 3
353 381 3
354 355 3
354 382 1
355 356 2
355 383 3
356 357 2
356 384 4
357 358 4
357 385 4
358 359 5
358 386 5
359 360 1
359 387 4
360 361 2
360 388 2
361 362 5
361 389 2
362 363 1
362 390 2
363 364 4
363 391 5
364 392 2
365 366 1
365 393 4
366 367 3
366 394 4
367 368 5
367 395 4
368 369 1
368 396 5
369 370 2
369 397 3
370 371 1
370 398 3
371 372 5
371 399 5
372 373 3
372 400 2
373 374 1
373 401 2
374 375 4
374 402 2
375 376 1
375 403 1
376 377 1
376 404 2
377 378 5
377 405 3
378 379 3
378 406 5
379 380 4
379 407 3
380 381 4
380 408 3
381 382 1
381 409 3
382 383 4
382 410 3
383 384 3
383 411 1
384 385 4
384 412 1
385 386 3
385 413 3
386 387 3
386 414 4
387 388 4
387 415 1
388 389 3
388 416 3
389 390 3
389 417 1
390 391 4
390 418 1
391 392 2
391 419 2
392 420 4
393 394 4
393 421 3
394 395 3
394 422 5
395 396 4
395 423 1
396 397 4
396 424 2
397 398 4
397 425 3
398 399 3
398 426 5
399 400 2
399 427 2
400 401 3
400 428 4
401 402 4
401 429 5
402 403 1
402 430 3
403 404 1
403 431 1
404 405 5
404 432 5
405 406 4
405 433 1
406 407 3
406 434 2
407 408 2
407 435 4
408 409 2
408 436 4
409 410 1
409 437 5
410 411 4
410 438 4
411 412 1
411 439 3
412 413 4
412 440 2
413 414 2
413 441 2
414 415 4
414 442 5
415 416 5
415 443 1
416 417 3
416 444 5
417 418 4
417 445 5
418 419 5
418 446 3
419 420 3
419 447 4
420 448 2
421 422 4
421 449 1
422 423 5
422 450 3
423 424 5
423 451 2
424 425 5
424 452 1
425 426 1
425 453 5
426 427 4
426 454 2
427 428 2
427 455 4
428 429 1
428 456 5
429 430 2
429 457 1
430 431 4
430 458 4
431 432 3
431 459 2
432 433 4
432 460 1
433 434 4
433 461 2
434 435 1
434 462 4
435 436 5
435 463 4
436 437 3
436 464 3
437 438 3
437 465 3
438 439 3
438 466 4
439 440 5
439 467 5
440 441 5
440 468 5
441 442 3
441 469 5
442 443 3
442 470 4
443 444 1
443 471 2
444 445 1
444 472 3
445 446 3
445 473 5
446 447 3
446 474 5
447 448 5
447 475 5
448 476 2
449 450 3
449 477 5
450 451 5
450 478 3
451 452 3
451 479 3
452 453 5
452 480 1
453 454 1
453 481 1
454 455 1
454 482 2
455 456 1
455 483 2
456 457 1
456 484 4
457 458 3
457 485 4
458 459 4
458 486 5
459 460 1
459 487 3
460 461 5
460 488 3
461 462 1
461 489 1
462 463 5
462 490 4
463 464 1
463 491 3
464 465 2
464 492 1
465 466 2
465 493 5
466 467 3
466 494 3
467 468 1
467 495 2
468 469 5
468 496 4
469 470 4
469 497 3
470 471 4
470 498 3
471 472 3
471 499 2
472 473 4
472 500 4
473 474 5
473 501 1
474 475 4
474 502 1
475 476 5
475 503 4
476 504 1
477 478 3
477 505 2
478 479 1
478 506 2
479 480 3
479 507 1
480 481 4
480 508 5
481 482 1
481 509 1
482 483 5
482 510 4
483 484 4
483 511 3
484 485 4
484 512 1
485 486 1
485 513 5
486 487 5
486 514 1
487 488 2
487 515 4
488 489 5
488 516 3
489 490 1
489 517 1
490 491 1
490 518 1
491 492 2
491 519 2
492 493 1
492 520 4
493 494 1
493 521 5
494 495 1
494 522 4
495 496 5
495 523 3
496 497 4
496 524 1
497 498 5
497 525 5
498 499 4
498 526 1
499 500 5
499 527 2
500 501 3
500 528 5
501 502 4
501 529 3
502 503 4
502 530 3
503 504 1
503 531 2
504 532 2
505 506 3
505 533 3
506 507 5
506 534 5
507 508 5
507 535 1
508 509 4
508 536 1
509 510 5
509 537 5
510 511 1
510 538 3
511 512 1
511 539 3
512 513 2
512 540 3
513 514 5
513 541 5
514 515 2
514 542 1
515 516 3
515 543 1
516 517 4
516 544 2
517 518 3
517 545 3
518 519 2
518 546 1
519 520 5
519 547 4
520 521 4
520 548 3
521 522 4
521 549 3
522 523 2
522 550 4
523 524 3
523 551 1
524 525 4
524 552 5
525 526 4
525 553 5
526 527 4
526 554 5
527 528 4
527 555 2
528 529 2
528 556 4
529 530 5
529 557 4
530 531 2
530 558 1
531 532 4
531 559 2
532 560 3
533 534 3
533 561 2
534 535 4
534 562 1
535 536 5
535 563 5
536 537 4
536 564 1
537 538 2
537 565 1
538 539 3
538 566 5
539 540 2
539 567 1
540 541 2
540 568 4
541 542 4
541 569 5
542 543 3
542 570 4
543 544 4
543 571 1
544 545 4
544 572 4
545 546 2
545 573 5
546 547 4
546 574 2
547 548 5
547 575 4
548 549 3
548 576 1
549 550 3
549 577 3
550 551 1
550 578 5
551 552 1
551 579 2
552 553 5
552 580 1
553 554 1
553 581 4
554 555 2
554 582 3
555 556 3
555 583 1
556 557 3
556 584 3
557 558 3
557 585 4
558 559 5
558 586 1
559 560 2
559 587 3
560 588 4
561 562 1
561 589 5
562 563 5
562 590 5
563 564 1
563 591 4
564 565 3
564 592 5
565 566 2
565 593 3
566 567 4
566 594 2
567 568 2
567 595 1
568 569 2
568 596 5
569 570 2
569 597 1
570 571 2
570 598 1
571 572 1
571 599 2
572 573 5
572 600 3
573 574 1
573 601 1
574 575 5
574 602 3
575 576 2
575 603 3
576 577 1
576 604 1
577 578 4
577 605 3
578 579 2
578 606 4
579 580 1
579 607 1
580 581 5
580 608 5
581 582 1
581 609 4
582 583 1
582 610 5
583 584 2
583 611 5
584 585 2
584 612 2
585 586 4
585 613 2
586 587 2
586 614 2
587 588 2
587 615 4
588 616 5
589 590 4
589 617 2
590 591 3
590 618 1
591 592 4
591 619 4
592 593 1
592 620 3
593 594 2
593 621 3
594 595 1
594 622 5
595 596 2
595 623 4
596 597 3
596 624 5
597 598 5
597 625 2
598 599 4
598 626 5
599 600 4
599 627 5
600 601 1
600 628 3
601 602 3
601 629 4
602 603 2
602 630 3
603 604 1
603 631 5
604 605 3
604 632 5
605 606 1
605 633 1
606 607 1
606 634 2
607 608 1
607 635 2
608 609 1
608 636 3
609 610 2
609 637 3
610 611 5
610 638 5
611 612 1
611 639 4
612 613 1
612 640 1
613 614 5
613 641 3
614 615 3
614 642 1
615 616 4
615 643 1
616 644 5
617 618 1
617 645 2
618 619 2
618 646 4
619 620 4
619 647 4
620 621 5
620 648 4
621 622 2
621 649 1
622 623 4
622 650 5
623 624 2
623 651 1
624 625 3
624 652 2
625 626 3
625 653 1
626 627 3
626 654 1
627 628 2
627 655 1
628 629 4
628 656 4
629 630 1
629 657 2
630 631 4
630 658 1
631 632 4
631 659 3
632 633 1
632 660 2
633 634 2
633 661 5
634 635 1
634 662 5
635 636 2
635 663 5
636 637 3
636 664 4
637 638 3
637 665 5
638 639 3
638 666 1
639 640 5
639 667 4
640 641 3
640 668 2
641 642 3
641 669 2
642 643 3
642 670 4
643 644 3
643 671 5
644 672 5
645 646 4
645 673 2
646 647 1
646 674 2
647 648 1
647 675 4
648 649 5
648 676 5
649 650 1
649 677 4
650 651 5
650 678 5
651 652 1
651 679 2
652 653 4
652 680 3
653 654 2
653 681 5
654 655 4
654 682 4
655 656 1
655 683 1
656 657 2
656 684 4
657 658 3
657 685 4
658 659 1
658 686 5
659 660 4
659 687 3
660 661 3
660 688 4
661 662 3
661 689 3
662 663 4
662 690 2
663 664 4
663 691 1
664 665 3
664 692 1
665 666 1
665 693 1
666 667 2
666 694 5
667 668 5
667 695 3
668 669 3
668 696 4
669 670 2
669 697 4
670 671 3
670 698 4
671 672 3
671 699 5
672 700 2
673 674 2
673 701 5
674 675 3
674 702 3
675 676 3
675 703 1
676 677 4
676 704 1
677 678 3
677 705 1
678 679 3
678 706 3
679 680 3
679 707 1
680 681 5
680 708 3
681 682 2
681 709 4
682 683 5
682 710 4
683 684 3
683 711 3
684 685 1
684 712 3
685 686 5
685 713 4
686 687 4
686 714 3
687 688 1
687 715 1
688 689 3
688 716 5
689 690 1
689 717 5
690 691 2
690 718 5
691 692 2
691 719 2
692 693 5
692 720 2
693 694 5
693 721 5
694 695 4
694 722 2
695 696 5
695 723 1
696 697 3
696 724 5
697 698 1
697 725 2
698 699 5
698 726 5
699 700 4
699 727 3
700 728 2
701 702 2
701 729 5
702 703 5
702 730 3
703 704 4
703 731 2
704 705 4
704 732 4
705 706 2
705 733 1
706 707 5
706 734 3
707 708 2
707 735 5
708 709 4
708 736 5
709 710 3
709 737 4
710 711 4
710 738 1
711 712 1
711 739 2
712 713 4
712 740 4
713 714 2
713 741 2
714 715 3
714 742 3
715 716 1
715 743 3
716 717 2
716 744 1
717 718 3
717 745 3
718 719 5
718 746 1
719 720 1
719 747 5
720 721 1
720 748 5
721 722 4
721 749 1
722 723 1
722 750 3
723 724 4
723 751 1
724 725 1
724 752 3
725 726 3
725 753 3
726 727 3
726 754 3
727 728 1
727 755 3
728 756 1
729 730 3
729 757 2
730 731 5
730 758 4
731 732 5
731 759 2
732 733 5
732 760 4
733 734 1
733 761 4
734 735 4
734 762 1
735 736 1
735 763 1
736 737 3
736 764 1
737 738 3
737 765 1
738 739 5
738 766 1
739 740 5
739 767 2
740 741 4
740 768 3
741 742 4
741 769 1
742 743 4
742 770 2
743 744 2
743 771 1
744 745 1
744 772 5
745 746 5
745 773 4
746 747 1
746 774 4
747 748 4
747 775 4
748 749 4
748 776 5
749 750 5
749 777 2
750 751 5
750 778 1
751 752 3
751 779 1
752 753 1
752 780 1
753 754 5
753 781 2
754 755 4
754 782 5
755 756 3
755 783 5
756 784 5
757 758 5
758 759 2
759 760 4
760 761 5
761 762 1
762 763 1
763 764 1
764 765 2
765 766 1
766 767 5
767 768 4
768 769 5
769 770 5
770 771 2
771 772 1
772 773 2
773 774 3
774 775 5
775 776 4
776 777 2
777 778 1
778 779 1
779 780 4
780 781 4
781 782 4
782 783 2
783 784 2
